# Solution for model iteration_12
# Objective value = 1.5132228027431118e+01
vars[0] 0
vars[1] 0.001
vars[2] 0.001
vars[3] 30.001
vars[4] 3.0002000000000002e+01
vars[5] 40.002
vars[6] 37.5740785273044
vars[7] 7.5133228027431116e+01
vars[8] 0
vars[9] 1.5132228027431118e+01
lambda[0] 0
lambda[1] 0
lambda[2] 0
lambda[3] 0
lambda[4] 0
lambda[5] 0
lambda[6] 0
lambda[7] 0
lambda[8] 0
lambda[9] 0
lambda[10] 0.756230970148596
lambda[11] 2.4376902985140403e-01
